p cnf 22 160
1 2 3 0
2 3 4 0
3 4 5 0
4 5 6 0
5 6 7 0
6 7 8 0
7 8 9 0
8 9 10 0
9 10 11 0
10 11 12 0
11 12 13 0
12 13 14 0
13 14 15 0
14 15 16 0
15 16 17 0
16 17 18 0
17 18 19 0
18 19 20 0
19 20 21 0
20 21 22 0
1 3 5 0
2 4 6 0
3 5 7 0
4 6 8 0
5 7 9 0
6 8 10 0
7 9 11 0
8 10 12 0
9 11 13 0
10 12 14 0
11 13 15 0
12 14 16 0
13 15 17 0
14 16 18 0
15 17 19 0
16 18 20 0
17 19 21 0
18 20 22 0
1 4 7 0
2 5 8 0
3 6 9 0
4 7 10 0
5 8 11 0
6 9 12 0
7 10 13 0
8 11 14 0
9 12 15 0
10 13 16 0
11 14 17 0
12 15 18 0
13 16 19 0
14 17 20 0
15 18 21 0
16 19 22 0
1 5 9 0
2 6 10 0
3 7 11 0
4 8 12 0
5 9 13 0
6 10 14 0
7 11 15 0
8 12 16 0
9 13 17 0
10 14 18 0
11 15 19 0
12 16 20 0
13 17 21 0
14 18 22 0
1 6 11 0
2 7 12 0
3 8 13 0
4 9 14 0
5 10 15 0
6 11 16 0
7 12 17 0
8 13 18 0
9 14 19 0
10 15 20 0
11 16 21 0
12 17 22 0
1 7 13 0
2 8 14 0
3 9 15 0
4 10 16 0
5 11 17 0
6 12 18 0
7 13 19 0
8 14 20 0
9 15 21 0
10 16 22 0
1 8 15 0
2 9 16 0
3 10 17 0
4 11 18 0
5 12 19 0
6 13 20 0
7 14 21 0
8 15 22 0
1 9 17 0
2 10 18 0
3 11 19 0
4 12 20 0
5 13 21 0
6 14 22 0
1 10 19 0
2 11 20 0
3 12 21 0
4 13 22 0
1 11 21 0
2 12 22 0
-1 -2 -3 -4 -5 0
-2 -3 -4 -5 -6 0
-3 -4 -5 -6 -7 0
-4 -5 -6 -7 -8 0
-5 -6 -7 -8 -9 0
-6 -7 -8 -9 -10 0
-7 -8 -9 -10 -11 0
-8 -9 -10 -11 -12 0
-9 -10 -11 -12 -13 0
-10 -11 -12 -13 -14 0
-11 -12 -13 -14 -15 0
-12 -13 -14 -15 -16 0
-13 -14 -15 -16 -17 0
-14 -15 -16 -17 -18 0
-15 -16 -17 -18 -19 0
-16 -17 -18 -19 -20 0
-17 -18 -19 -20 -21 0
-18 -19 -20 -21 -22 0
-1 -3 -5 -7 -9 0
-2 -4 -6 -8 -10 0
-3 -5 -7 -9 -11 0
-4 -6 -8 -10 -12 0
-5 -7 -9 -11 -13 0
-6 -8 -10 -12 -14 0
-7 -9 -11 -13 -15 0
-8 -10 -12 -14 -16 0
-9 -11 -13 -15 -17 0
-10 -12 -14 -16 -18 0
-11 -13 -15 -17 -19 0
-12 -14 -16 -18 -20 0
-13 -15 -17 -19 -21 0
-14 -16 -18 -20 -22 0
-1 -4 -7 -10 -13 0
-2 -5 -8 -11 -14 0
-3 -6 -9 -12 -15 0
-4 -7 -10 -13 -16 0
-5 -8 -11 -14 -17 0
-6 -9 -12 -15 -18 0
-7 -10 -13 -16 -19 0
-8 -11 -14 -17 -20 0
-9 -12 -15 -18 -21 0
-10 -13 -16 -19 -22 0
-1 -5 -9 -13 -17 0
-2 -6 -10 -14 -18 0
-3 -7 -11 -15 -19 0
-4 -8 -12 -16 -20 0
-5 -9 -13 -17 -21 0
-6 -10 -14 -18 -22 0
-1 -6 -11 -16 -21 0
-2 -7 -12 -17 -22 0
